NAME: rand_0/map1_180
TYPE: TSP
COMMENT: autogenerated using a wonderful map creator
DIMENSION: 210
EDGE_WEIGHT_TYPE: EUC_2D
NODE_COORD_SECTION
1 78.0 60.0
2 30.0 61.0
3 67.0 52.0
4 67.0 53.0
5 13.0 11.0
6 27.0 52.0
7 74.0 7.0
8 77.0 8.0
9 5.0 11.0
10 68.0 38.0
11 70.0 55.0
12 74.0 44.0
13 73.0 57.0
14 72.0 56.0
15 72.0 50.0
16 5.0 5.0
17 69.0 37.0
18 69.0 62.0
19 77.0 63.0
20 66.0 35.0
21 22.0 55.0
22 72.0 46.0
23 68.0 51.0
24 71.0 51.0
25 23.0 54.0
26 75.0 43.0
27 68.0 55.0
28 72.0 37.0
29 30.0 58.0
30 74.0 57.0
31 76.0 60.0
32 13.0 9.0
33 74.0 5.0
34 68.0 49.0
35 74.0 38.0
36 7.0 6.0
37 68.0 39.0
38 74.0 60.0
39 7.0 7.0
40 71.0 49.0
41 66.0 38.0
42 72.0 6.0
43 76.0 5.0
44 26.0 55.0
45 15.0 12.0
46 76.0 40.0
47 75.0 63.0
48 76.0 45.0
49 74.0 54.0
50 26.0 2.0
51 19.0 55.0
52 70.0 9.0
53 30.0 56.0
54 11.0 11.0
55 67.0 50.0
56 65.0 57.0
57 21.0 4.0
58 71.0 36.0
59 23.0 9.0
60 74.0 41.0
61 41.0 40.0
62 15.0 21.0
63 55.0 2.0
64 72.0 18.0
65 35.0 33.0
66 71.0 20.0
67 55.0 11.0
68 26.0 21.0
69 47.0 53.0
70 53.0 23.0
71 10.0 52.0
72 59.0 18.0
73 10.0 61.0
74 12.0 34.0
75 66.0 14.0
76 57.0 11.0
77 9.0 26.0
78 40.0 59.0
79 11.0 23.0
80 12.0 52.0
81 24.0 26.0
82 54.0 6.0
83 13.0 35.0
84 62.0 19.0
85 42.0 50.0
86 54.0 15.0
87 10.0 45.0
88 55.0 13.0
89 42.0 59.0
90 45.0 21.0
91 56.0 30.0
92 47.0 27.0
93 23.0 27.0
94 63.0 45.0
95 40.0 43.0
96 69.0 24.0
97 14.0 24.0
98 12.0 36.0
99 17.0 23.0
100 66.0 21.0
101 14.0 42.0
102 66.0 25.0
103 13.0 28.0
104 18.0 21.0
105 13.0 37.0
106 59.0 4.0
107 57.0 43.0
108 9.0 58.0
109 69.0 17.0
110 54.0 44.0
111 55.0 36.0
112 58.0 35.0
113 50.0 40.0
114 13.0 21.0
115 72.0 15.0
116 13.0 30.0
117 40.0 20.0
118 77.0 14.0
119 6.0 27.0
120 57.0 45.0
121 58.0 10.0
122 78.0 22.0
123 58.0 19.0
124 37.0 30.0
125 60.0 25.0
126 13.0 60.0
127 36.0 34.0
128 8.0 27.0
129 42.0 29.0
130 33.0 26.0
131 65.0 24.0
132 26.0 20.0
133 41.0 39.0
134 63.0 15.0
135 46.0 29.0
136 57.0 38.0
137 54.0 30.0
138 78.0 15.0
139 41.0 60.0
140 49.0 52.0
141 40.0 58.0
142 41.0 23.0
143 58.0 39.0
144 42.0 31.0
145 10.0 26.0
146 59.0 56.0
147 42.0 49.0
148 63.0 17.0
149 31.0 21.0
150 20.0 21.0
151 39.0 34.0
152 11.0 52.0
153 9.0 55.0
154 43.0 59.0
155 59.0 31.0
156 30.0 22.0
157 42.0 33.0
158 68.0 15.0
159 71.0 14.0
160 9.0 39.0
161 3.0 53.0
162 14.0 53.0
163 56.0 13.0
164 40.0 26.0
165 54.0 25.0
166 60.0 59.0
167 11.0 54.0
168 61.0 3.0
169 67.0 19.0
170 55.0 17.0
171 13.0 48.0
172 38.0 47.0
173 4.0 24.0
174 8.0 24.0
175 42.0 26.0
176 10.0 21.0
177 76.0 21.0
178 63.0 3.0
179 66.0 29.0
180 54.0 9.0
181 11.0 47.0
182 55.0 10.0
183 21.0 24.0
184 56.0 27.0
185 36.0 24.0
186 45.0 27.0
187 34.0 27.0
188 56.0 54.0
189 71.0 18.0
190 12.0 51.0
191 68.0 28.0
192 5.0 54.0
193 26.0 22.0
194 72.0 19.0
195 13.0 34.0
196 7.0 27.0
197 58.0 11.0
198 59.0 19.0
199 28.0 22.0
200 30.0 28.0
201 39.0 61.0
202 42.0 30.0
203 65.0 25.0
204 2.0 21.0
205 5.0 56.0
206 6.0 21.0
207 55.0 5.0
208 59.0 3.0
209 43.0 49.0
210 38.0 35.0
211 53.0 26.0
212 55.0 23.0
213 44.0 57.0
214 42.0 23.0
215 39.0 54.0
216 53.0 53.0
217 65.0 27.0
218 2.0 23.0
219 63.0 18.0
220 15.0 26.0
221 53.0 37.0
222 13.0 22.0
223 44.0 34.0
224 13.0 31.0
225 38.0 30.0
226 62.0 15.0
227 58.0 8.0
228 41.0 56.0
229 64.0 21.0
230 55.0 18.0
231 56.0 17.0
232 20.0 27.0
233 10.0 59.0
234 36.0 23.0
235 75.0 15.0
236 65.0 22.0
237 14.0 38.0
238 51.0 32.0
239 32.0 28.0
240 68.0 27.0
START_DEPOT_SECTION
1
2
3
4
5
6
7
8
9
10
11
12
13
14
15
16
17
18
19
20
21
22
23
24
25
26
27
28
29
30
-1
END_DEPOT_SECTION
31
32
33
34
35
36
37
38
39
40
41
42
43
44
45
46
47
48
49
50
51
52
53
54
55
56
57
58
59
60
-1
EOF
